liczbaMiejsc = 96;
liczbaPracownikow = 48;
dMin = 2.5;
procentowaZajetoscMiejscWFirmie = 0.5;
macierzOdleglosci = [[0, 1.5, 3.0, 4.5, 6.0, 7.5, 2.0, 2.5, 3.6, 4.9, 6.3, 7.8, 5.0, 5.2, 5.8, 6.7, 7.8, 9.0, 7.0, 7.2, 7.6, 8.3, 9.2, 10.3, 10.0, 10.1, 10.4, 11.0, 11.7, 12.5, 12.0, 12.1, 12.4, 12.8, 13.4, 14.2, 15.0, 15.1, 15.3, 15.7, 16.2, 16.8, 17.0, 17.1, 17.3, 17.6, 18.0, 18.6, 20.0, 20.1, 20.2, 20.5, 20.9, 21.4, 22.0, 22.1, 22.2, 22.5, 22.8, 23.2, 25.0, 25.0, 25.2, 25.4, 25.7, 26.1, 27.0, 27.0, 27.2, 27.4, 27.7, 28.0, 30.0, 30.0, 30.1, 30.3, 30.6, 30.9, 32.0, 32.0, 32.1, 32.3, 32.6, 32.9, 35.0, 35.0, 35.1, 35.3, 35.5, 35.8, 37.0, 37.0, 37.1, 37.3, 37.5, 37.8], [0, 0, 1.5, 3.0, 4.5, 6.0, 2.5, 2.0, 2.5, 3.6, 4.9, 6.3, 5.2, 5.0, 5.2, 5.8, 6.7, 7.8, 7.2, 7.0, 7.2, 7.6, 8.3, 9.2, 10.1, 10.0, 10.1, 10.4, 11.0, 11.7, 12.1, 12.0, 12.1, 12.4, 12.8, 13.4, 15.1, 15.0, 15.1, 15.3, 15.7, 16.2, 17.1, 17.0, 17.1, 17.3, 17.6, 18.0, 20.1, 20.0, 20.1, 20.2, 20.5, 20.9, 22.1, 22.0, 22.1, 22.2, 22.5, 22.8, 25.0, 25.0, 25.0, 25.2, 25.4, 25.7, 27.0, 27.0, 27.0, 27.2, 27.4, 27.7, 30.0, 30.0, 30.0, 30.1, 30.3, 30.6, 32.0, 32.0, 32.0, 32.1, 32.3, 32.6, 35.0, 35.0, 35.0, 35.1, 35.3, 35.5, 37.0, 37.0, 37.0, 37.1, 37.3, 37.5], [0, 0, 0, 1.5, 3.0, 4.5, 3.6, 2.5, 2.0, 2.5, 3.6, 4.9, 5.8, 5.2, 5.0, 5.2, 5.8, 6.7, 7.6, 7.2, 7.0, 7.2, 7.6, 8.3, 10.4, 10.1, 10.0, 10.1, 10.4, 11.0, 12.4, 12.1, 12.0, 12.1, 12.4, 12.8, 15.3, 15.1, 15.0, 15.1, 15.3, 15.7, 17.3, 17.1, 17.0, 17.1, 17.3, 17.6, 20.2, 20.1, 20.0, 20.1, 20.2, 20.5, 22.2, 22.1, 22.0, 22.1, 22.2, 22.5, 25.2, 25.0, 25.0, 25.0, 25.2, 25.4, 27.2, 27.0, 27.0, 27.0, 27.2, 27.4, 30.1, 30.0, 30.0, 30.0, 30.1, 30.3, 32.1, 32.0, 32.0, 32.0, 32.1, 32.3, 35.1, 35.0, 35.0, 35.0, 35.1, 35.3, 37.1, 37.0, 37.0, 37.0, 37.1, 37.3], [0, 0, 0, 0, 1.5, 3.0, 4.9, 3.6, 2.5, 2.0, 2.5, 3.6, 6.7, 5.8, 5.2, 5.0, 5.2, 5.8, 8.3, 7.6, 7.2, 7.0, 7.2, 7.6, 11.0, 10.4, 10.1, 10.0, 10.1, 10.4, 12.8, 12.4, 12.1, 12.0, 12.1, 12.4, 15.7, 15.3, 15.1, 15.0, 15.1, 15.3, 17.6, 17.3, 17.1, 17.0, 17.1, 17.3, 20.5, 20.2, 20.1, 20.0, 20.1, 20.2, 22.5, 22.2, 22.1, 22.0, 22.1, 22.2, 25.4, 25.2, 25.0, 25.0, 25.0, 25.2, 27.4, 27.2, 27.0, 27.0, 27.0, 27.2, 30.3, 30.1, 30.0, 30.0, 30.0, 30.1, 32.3, 32.1, 32.0, 32.0, 32.0, 32.1, 35.3, 35.1, 35.0, 35.0, 35.0, 35.1, 37.3, 37.1, 37.0, 37.0, 37.0, 37.1], [0, 0, 0, 0, 0, 1.5, 6.3, 4.9, 3.6, 2.5, 2.0, 2.5, 7.8, 6.7, 5.8, 5.2, 5.0, 5.2, 9.2, 8.3, 7.6, 7.2, 7.0, 7.2, 11.7, 11.0, 10.4, 10.1, 10.0, 10.1, 13.4, 12.8, 12.4, 12.1, 12.0, 12.1, 16.2, 15.7, 15.3, 15.1, 15.0, 15.1, 18.0, 17.6, 17.3, 17.1, 17.0, 17.1, 20.9, 20.5, 20.2, 20.1, 20.0, 20.1, 22.8, 22.5, 22.2, 22.1, 22.0, 22.1, 25.7, 25.4, 25.2, 25.0, 25.0, 25.0, 27.7, 27.4, 27.2, 27.0, 27.0, 27.0, 30.6, 30.3, 30.1, 30.0, 30.0, 30.0, 32.6, 32.3, 32.1, 32.0, 32.0, 32.0, 35.5, 35.3, 35.1, 35.0, 35.0, 35.0, 37.5, 37.3, 37.1, 37.0, 37.0, 37.0], [0, 0, 0, 0, 0, 0, 7.8, 6.3, 4.9, 3.6, 2.5, 2.0, 9.0, 7.8, 6.7, 5.8, 5.2, 5.0, 10.3, 9.2, 8.3, 7.6, 7.2, 7.0, 12.5, 11.7, 11.0, 10.4, 10.1, 10.0, 14.2, 13.4, 12.8, 12.4, 12.1, 12.0, 16.8, 16.2, 15.7, 15.3, 15.1, 15.0, 18.6, 18.0, 17.6, 17.3, 17.1, 17.0, 21.4, 20.9, 20.5, 20.2, 20.1, 20.0, 23.2, 22.8, 22.5, 22.2, 22.1, 22.0, 26.1, 25.7, 25.4, 25.2, 25.0, 25.0, 28.0, 27.7, 27.4, 27.2, 27.0, 27.0, 30.9, 30.6, 30.3, 30.1, 30.0, 30.0, 32.9, 32.6, 32.3, 32.1, 32.0, 32.0, 35.8, 35.5, 35.3, 35.1, 35.0, 35.0, 37.8, 37.5, 37.3, 37.1, 37.0, 37.0], [0, 0, 0, 0, 0, 0, 0, 1.5, 3.0, 4.5, 6.0, 7.5, 3.0, 3.4, 4.2, 5.4, 6.7, 8.1, 5.0, 5.2, 5.8, 6.7, 7.8, 9.0, 8.0, 8.1, 8.5, 9.2, 10.0, 11.0, 10.0, 10.1, 10.4, 11.0, 11.7, 12.5, 13.0, 13.1, 13.3, 13.8, 14.3, 15.0, 15.0, 15.1, 15.3, 15.7, 16.2, 16.8, 18.0, 18.1, 18.2, 18.6, 19.0, 19.5, 20.0, 20.1, 20.2, 20.5, 20.9, 21.4, 23.0, 23.0, 23.2, 23.4, 23.8, 24.2, 25.0, 25.0, 25.2, 25.4, 25.7, 26.1, 28.0, 28.0, 28.2, 28.4, 28.6, 29.0, 30.0, 30.0, 30.1, 30.3, 30.6, 30.9, 33.0, 33.0, 33.1, 33.3, 33.5, 33.8, 35.0, 35.0, 35.1, 35.3, 35.5, 35.8], [0, 0, 0, 0, 0, 0, 0, 0, 1.5, 3.0, 4.5, 6.0, 3.4, 3.0, 3.4, 4.2, 5.4, 6.7, 5.2, 5.0, 5.2, 5.8, 6.7, 7.8, 8.1, 8.0, 8.1, 8.5, 9.2, 10.0, 10.1, 10.0, 10.1, 10.4, 11.0, 11.7, 13.1, 13.0, 13.1, 13.3, 13.8, 14.3, 15.1, 15.0, 15.1, 15.3, 15.7, 16.2, 18.1, 18.0, 18.1, 18.2, 18.6, 19.0, 20.1, 20.0, 20.1, 20.2, 20.5, 20.9, 23.0, 23.0, 23.0, 23.2, 23.4, 23.8, 25.0, 25.0, 25.0, 25.2, 25.4, 25.7, 28.0, 28.0, 28.0, 28.2, 28.4, 28.6, 30.0, 30.0, 30.0, 30.1, 30.3, 30.6, 33.0, 33.0, 33.0, 33.1, 33.3, 33.5, 35.0, 35.0, 35.0, 35.1, 35.3, 35.5], [0, 0, 0, 0, 0, 0, 0, 0, 0, 1.5, 3.0, 4.5, 4.2, 3.4, 3.0, 3.4, 4.2, 5.4, 5.8, 5.2, 5.0, 5.2, 5.8, 6.7, 8.5, 8.1, 8.0, 8.1, 8.5, 9.2, 10.4, 10.1, 10.0, 10.1, 10.4, 11.0, 13.3, 13.1, 13.0, 13.1, 13.3, 13.8, 15.3, 15.1, 15.0, 15.1, 15.3, 15.7, 18.2, 18.1, 18.0, 18.1, 18.2, 18.6, 20.2, 20.1, 20.0, 20.1, 20.2, 20.5, 23.2, 23.0, 23.0, 23.0, 23.2, 23.4, 25.2, 25.0, 25.0, 25.0, 25.2, 25.4, 28.2, 28.0, 28.0, 28.0, 28.2, 28.4, 30.1, 30.0, 30.0, 30.0, 30.1, 30.3, 33.1, 33.0, 33.0, 33.0, 33.1, 33.3, 35.1, 35.0, 35.0, 35.0, 35.1, 35.3], [0, 0, 0, 0, 0, 0, 0, 0, 0, 0, 1.5, 3.0, 5.4, 4.2, 3.4, 3.0, 3.4, 4.2, 6.7, 5.8, 5.2, 5.0, 5.2, 5.8, 9.2, 8.5, 8.1, 8.0, 8.1, 8.5, 11.0, 10.4, 10.1, 10.0, 10.1, 10.4, 13.8, 13.3, 13.1, 13.0, 13.1, 13.3, 15.7, 15.3, 15.1, 15.0, 15.1, 15.3, 18.6, 18.2, 18.1, 18.0, 18.1, 18.2, 20.5, 20.2, 20.1, 20.0, 20.1, 20.2, 23.4, 23.2, 23.0, 23.0, 23.0, 23.2, 25.4, 25.2, 25.0, 25.0, 25.0, 25.2, 28.4, 28.2, 28.0, 28.0, 28.0, 28.2, 30.3, 30.1, 30.0, 30.0, 30.0, 30.1, 33.3, 33.1, 33.0, 33.0, 33.0, 33.1, 35.3, 35.1, 35.0, 35.0, 35.0, 35.1], [0, 0, 0, 0, 0, 0, 0, 0, 0, 0, 0, 1.5, 6.7, 5.4, 4.2, 3.4, 3.0, 3.4, 7.8, 6.7, 5.8, 5.2, 5.0, 5.2, 10.0, 9.2, 8.5, 8.1, 8.0, 8.1, 11.7, 11.0, 10.4, 10.1, 10.0, 10.1, 14.3, 13.8, 13.3, 13.1, 13.0, 13.1, 16.2, 15.7, 15.3, 15.1, 15.0, 15.1, 19.0, 18.6, 18.2, 18.1, 18.0, 18.1, 20.9, 20.5, 20.2, 20.1, 20.0, 20.1, 23.8, 23.4, 23.2, 23.0, 23.0, 23.0, 25.7, 25.4, 25.2, 25.0, 25.0, 25.0, 28.6, 28.4, 28.2, 28.0, 28.0, 28.0, 30.6, 30.3, 30.1, 30.0, 30.0, 30.0, 33.5, 33.3, 33.1, 33.0, 33.0, 33.0, 35.5, 35.3, 35.1, 35.0, 35.0, 35.0], [0, 0, 0, 0, 0, 0, 0, 0, 0, 0, 0, 0, 8.1, 6.7, 5.4, 4.2, 3.4, 3.0, 9.0, 7.8, 6.7, 5.8, 5.2, 5.0, 11.0, 10.0, 9.2, 8.5, 8.1, 8.0, 12.5, 11.7, 11.0, 10.4, 10.1, 10.0, 15.0, 14.3, 13.8, 13.3, 13.1, 13.0, 16.8, 16.2, 15.7, 15.3, 15.1, 15.0, 19.5, 19.0, 18.6, 18.2, 18.1, 18.0, 21.4, 20.9, 20.5, 20.2, 20.1, 20.0, 24.2, 23.8, 23.4, 23.2, 23.0, 23.0, 26.1, 25.7, 25.4, 25.2, 25.0, 25.0, 29.0, 28.6, 28.4, 28.2, 28.0, 28.0, 30.9, 30.6, 30.3, 30.1, 30.0, 30.0, 33.8, 33.5, 33.3, 33.1, 33.0, 33.0, 35.8, 35.5, 35.3, 35.1, 35.0, 35.0], [0, 0, 0, 0, 0, 0, 0, 0, 0, 0, 0, 0, 0, 1.5, 3.0, 4.5, 6.0, 7.5, 2.0, 2.5, 3.6, 4.9, 6.3, 7.8, 5.0, 5.2, 5.8, 6.7, 7.8, 9.0, 7.0, 7.2, 7.6, 8.3, 9.2, 10.3, 10.0, 10.1, 10.4, 11.0, 11.7, 12.5, 12.0, 12.1, 12.4, 12.8, 13.4, 14.2, 15.0, 15.1, 15.3, 15.7, 16.2, 16.8, 17.0, 17.1, 17.3, 17.6, 18.0, 18.6, 20.0, 20.1, 20.2, 20.5, 20.9, 21.4, 22.0, 22.1, 22.2, 22.5, 22.8, 23.2, 25.0, 25.0, 25.2, 25.4, 25.7, 26.1, 27.0, 27.0, 27.2, 27.4, 27.7, 28.0, 30.0, 30.0, 30.1, 30.3, 30.6, 30.9, 32.0, 32.0, 32.1, 32.3, 32.6, 32.9], [0, 0, 0, 0, 0, 0, 0, 0, 0, 0, 0, 0, 0, 0, 1.5, 3.0, 4.5, 6.0, 2.5, 2.0, 2.5, 3.6, 4.9, 6.3, 5.2, 5.0, 5.2, 5.8, 6.7, 7.8, 7.2, 7.0, 7.2, 7.6, 8.3, 9.2, 10.1, 10.0, 10.1, 10.4, 11.0, 11.7, 12.1, 12.0, 12.1, 12.4, 12.8, 13.4, 15.1, 15.0, 15.1, 15.3, 15.7, 16.2, 17.1, 17.0, 17.1, 17.3, 17.6, 18.0, 20.1, 20.0, 20.1, 20.2, 20.5, 20.9, 22.1, 22.0, 22.1, 22.2, 22.5, 22.8, 25.0, 25.0, 25.0, 25.2, 25.4, 25.7, 27.0, 27.0, 27.0, 27.2, 27.4, 27.7, 30.0, 30.0, 30.0, 30.1, 30.3, 30.6, 32.0, 32.0, 32.0, 32.1, 32.3, 32.6], [0, 0, 0, 0, 0, 0, 0, 0, 0, 0, 0, 0, 0, 0, 0, 1.5, 3.0, 4.5, 3.6, 2.5, 2.0, 2.5, 3.6, 4.9, 5.8, 5.2, 5.0, 5.2, 5.8, 6.7, 7.6, 7.2, 7.0, 7.2, 7.6, 8.3, 10.4, 10.1, 10.0, 10.1, 10.4, 11.0, 12.4, 12.1, 12.0, 12.1, 12.4, 12.8, 15.3, 15.1, 15.0, 15.1, 15.3, 15.7, 17.3, 17.1, 17.0, 17.1, 17.3, 17.6, 20.2, 20.1, 20.0, 20.1, 20.2, 20.5, 22.2, 22.1, 22.0, 22.1, 22.2, 22.5, 25.2, 25.0, 25.0, 25.0, 25.2, 25.4, 27.2, 27.0, 27.0, 27.0, 27.2, 27.4, 30.1, 30.0, 30.0, 30.0, 30.1, 30.3, 32.1, 32.0, 32.0, 32.0, 32.1, 32.3], [0, 0, 0, 0, 0, 0, 0, 0, 0, 0, 0, 0, 0, 0, 0, 0, 1.5, 3.0, 4.9, 3.6, 2.5, 2.0, 2.5, 3.6, 6.7, 5.8, 5.2, 5.0, 5.2, 5.8, 8.3, 7.6, 7.2, 7.0, 7.2, 7.6, 11.0, 10.4, 10.1, 10.0, 10.1, 10.4, 12.8, 12.4, 12.1, 12.0, 12.1, 12.4, 15.7, 15.3, 15.1, 15.0, 15.1, 15.3, 17.6, 17.3, 17.1, 17.0, 17.1, 17.3, 20.5, 20.2, 20.1, 20.0, 20.1, 20.2, 22.5, 22.2, 22.1, 22.0, 22.1, 22.2, 25.4, 25.2, 25.0, 25.0, 25.0, 25.2, 27.4, 27.2, 27.0, 27.0, 27.0, 27.2, 30.3, 30.1, 30.0, 30.0, 30.0, 30.1, 32.3, 32.1, 32.0, 32.0, 32.0, 32.1], [0, 0, 0, 0, 0, 0, 0, 0, 0, 0, 0, 0, 0, 0, 0, 0, 0, 1.5, 6.3, 4.9, 3.6, 2.5, 2.0, 2.5, 7.8, 6.7, 5.8, 5.2, 5.0, 5.2, 9.2, 8.3, 7.6, 7.2, 7.0, 7.2, 11.7, 11.0, 10.4, 10.1, 10.0, 10.1, 13.4, 12.8, 12.4, 12.1, 12.0, 12.1, 16.2, 15.7, 15.3, 15.1, 15.0, 15.1, 18.0, 17.6, 17.3, 17.1, 17.0, 17.1, 20.9, 20.5, 20.2, 20.1, 20.0, 20.1, 22.8, 22.5, 22.2, 22.1, 22.0, 22.1, 25.7, 25.4, 25.2, 25.0, 25.0, 25.0, 27.7, 27.4, 27.2, 27.0, 27.0, 27.0, 30.6, 30.3, 30.1, 30.0, 30.0, 30.0, 32.6, 32.3, 32.1, 32.0, 32.0, 32.0], [0, 0, 0, 0, 0, 0, 0, 0, 0, 0, 0, 0, 0, 0, 0, 0, 0, 0, 7.8, 6.3, 4.9, 3.6, 2.5, 2.0, 9.0, 7.8, 6.7, 5.8, 5.2, 5.0, 10.3, 9.2, 8.3, 7.6, 7.2, 7.0, 12.5, 11.7, 11.0, 10.4, 10.1, 10.0, 14.2, 13.4, 12.8, 12.4, 12.1, 12.0, 16.8, 16.2, 15.7, 15.3, 15.1, 15.0, 18.6, 18.0, 17.6, 17.3, 17.1, 17.0, 21.4, 20.9, 20.5, 20.2, 20.1, 20.0, 23.2, 22.8, 22.5, 22.2, 22.1, 22.0, 26.1, 25.7, 25.4, 25.2, 25.0, 25.0, 28.0, 27.7, 27.4, 27.2, 27.0, 27.0, 30.9, 30.6, 30.3, 30.1, 30.0, 30.0, 32.9, 32.6, 32.3, 32.1, 32.0, 32.0], [0, 0, 0, 0, 0, 0, 0, 0, 0, 0, 0, 0, 0, 0, 0, 0, 0, 0, 0, 1.5, 3.0, 4.5, 6.0, 7.5, 3.0, 3.4, 4.2, 5.4, 6.7, 8.1, 5.0, 5.2, 5.8, 6.7, 7.8, 9.0, 8.0, 8.1, 8.5, 9.2, 10.0, 11.0, 10.0, 10.1, 10.4, 11.0, 11.7, 12.5, 13.0, 13.1, 13.3, 13.8, 14.3, 15.0, 15.0, 15.1, 15.3, 15.7, 16.2, 16.8, 18.0, 18.1, 18.2, 18.6, 19.0, 19.5, 20.0, 20.1, 20.2, 20.5, 20.9, 21.4, 23.0, 23.0, 23.2, 23.4, 23.8, 24.2, 25.0, 25.0, 25.2, 25.4, 25.7, 26.1, 28.0, 28.0, 28.2, 28.4, 28.6, 29.0, 30.0, 30.0, 30.1, 30.3, 30.6, 30.9], [0, 0, 0, 0, 0, 0, 0, 0, 0, 0, 0, 0, 0, 0, 0, 0, 0, 0, 0, 0, 1.5, 3.0, 4.5, 6.0, 3.4, 3.0, 3.4, 4.2, 5.4, 6.7, 5.2, 5.0, 5.2, 5.8, 6.7, 7.8, 8.1, 8.0, 8.1, 8.5, 9.2, 10.0, 10.1, 10.0, 10.1, 10.4, 11.0, 11.7, 13.1, 13.0, 13.1, 13.3, 13.8, 14.3, 15.1, 15.0, 15.1, 15.3, 15.7, 16.2, 18.1, 18.0, 18.1, 18.2, 18.6, 19.0, 20.1, 20.0, 20.1, 20.2, 20.5, 20.9, 23.0, 23.0, 23.0, 23.2, 23.4, 23.8, 25.0, 25.0, 25.0, 25.2, 25.4, 25.7, 28.0, 28.0, 28.0, 28.2, 28.4, 28.6, 30.0, 30.0, 30.0, 30.1, 30.3, 30.6], [0, 0, 0, 0, 0, 0, 0, 0, 0, 0, 0, 0, 0, 0, 0, 0, 0, 0, 0, 0, 0, 1.5, 3.0, 4.5, 4.2, 3.4, 3.0, 3.4, 4.2, 5.4, 5.8, 5.2, 5.0, 5.2, 5.8, 6.7, 8.5, 8.1, 8.0, 8.1, 8.5, 9.2, 10.4, 10.1, 10.0, 10.1, 10.4, 11.0, 13.3, 13.1, 13.0, 13.1, 13.3, 13.8, 15.3, 15.1, 15.0, 15.1, 15.3, 15.7, 18.2, 18.1, 18.0, 18.1, 18.2, 18.6, 20.2, 20.1, 20.0, 20.1, 20.2, 20.5, 23.2, 23.0, 23.0, 23.0, 23.2, 23.4, 25.2, 25.0, 25.0, 25.0, 25.2, 25.4, 28.2, 28.0, 28.0, 28.0, 28.2, 28.4, 30.1, 30.0, 30.0, 30.0, 30.1, 30.3], [0, 0, 0, 0, 0, 0, 0, 0, 0, 0, 0, 0, 0, 0, 0, 0, 0, 0, 0, 0, 0, 0, 1.5, 3.0, 5.4, 4.2, 3.4, 3.0, 3.4, 4.2, 6.7, 5.8, 5.2, 5.0, 5.2, 5.8, 9.2, 8.5, 8.1, 8.0, 8.1, 8.5, 11.0, 10.4, 10.1, 10.0, 10.1, 10.4, 13.8, 13.3, 13.1, 13.0, 13.1, 13.3, 15.7, 15.3, 15.1, 15.0, 15.1, 15.3, 18.6, 18.2, 18.1, 18.0, 18.1, 18.2, 20.5, 20.2, 20.1, 20.0, 20.1, 20.2, 23.4, 23.2, 23.0, 23.0, 23.0, 23.2, 25.4, 25.2, 25.0, 25.0, 25.0, 25.2, 28.4, 28.2, 28.0, 28.0, 28.0, 28.2, 30.3, 30.1, 30.0, 30.0, 30.0, 30.1], [0, 0, 0, 0, 0, 0, 0, 0, 0, 0, 0, 0, 0, 0, 0, 0, 0, 0, 0, 0, 0, 0, 0, 1.5, 6.7, 5.4, 4.2, 3.4, 3.0, 3.4, 7.8, 6.7, 5.8, 5.2, 5.0, 5.2, 10.0, 9.2, 8.5, 8.1, 8.0, 8.1, 11.7, 11.0, 10.4, 10.1, 10.0, 10.1, 14.3, 13.8, 13.3, 13.1, 13.0, 13.1, 16.2, 15.7, 15.3, 15.1, 15.0, 15.1, 19.0, 18.6, 18.2, 18.1, 18.0, 18.1, 20.9, 20.5, 20.2, 20.1, 20.0, 20.1, 23.8, 23.4, 23.2, 23.0, 23.0, 23.0, 25.7, 25.4, 25.2, 25.0, 25.0, 25.0, 28.6, 28.4, 28.2, 28.0, 28.0, 28.0, 30.6, 30.3, 30.1, 30.0, 30.0, 30.0], [0, 0, 0, 0, 0, 0, 0, 0, 0, 0, 0, 0, 0, 0, 0, 0, 0, 0, 0, 0, 0, 0, 0, 0, 8.1, 6.7, 5.4, 4.2, 3.4, 3.0, 9.0, 7.8, 6.7, 5.8, 5.2, 5.0, 11.0, 10.0, 9.2, 8.5, 8.1, 8.0, 12.5, 11.7, 11.0, 10.4, 10.1, 10.0, 15.0, 14.3, 13.8, 13.3, 13.1, 13.0, 16.8, 16.2, 15.7, 15.3, 15.1, 15.0, 19.5, 19.0, 18.6, 18.2, 18.1, 18.0, 21.4, 20.9, 20.5, 20.2, 20.1, 20.0, 24.2, 23.8, 23.4, 23.2, 23.0, 23.0, 26.1, 25.7, 25.4, 25.2, 25.0, 25.0, 29.0, 28.6, 28.4, 28.2, 28.0, 28.0, 30.9, 30.6, 30.3, 30.1, 30.0, 30.0], [0, 0, 0, 0, 0, 0, 0, 0, 0, 0, 0, 0, 0, 0, 0, 0, 0, 0, 0, 0, 0, 0, 0, 0, 0, 1.5, 3.0, 4.5, 6.0, 7.5, 2.0, 2.5, 3.6, 4.9, 6.3, 7.8, 5.0, 5.2, 5.8, 6.7, 7.8, 9.0, 7.0, 7.2, 7.6, 8.3, 9.2, 10.3, 10.0, 10.1, 10.4, 11.0, 11.7, 12.5, 12.0, 12.1, 12.4, 12.8, 13.4, 14.2, 15.0, 15.1, 15.3, 15.7, 16.2, 16.8, 17.0, 17.1, 17.3, 17.6, 18.0, 18.6, 20.0, 20.1, 20.2, 20.5, 20.9, 21.4, 22.0, 22.1, 22.2, 22.5, 22.8, 23.2, 25.0, 25.0, 25.2, 25.4, 25.7, 26.1, 27.0, 27.0, 27.2, 27.4, 27.7, 28.0], [0, 0, 0, 0, 0, 0, 0, 0, 0, 0, 0, 0, 0, 0, 0, 0, 0, 0, 0, 0, 0, 0, 0, 0, 0, 0, 1.5, 3.0, 4.5, 6.0, 2.5, 2.0, 2.5, 3.6, 4.9, 6.3, 5.2, 5.0, 5.2, 5.8, 6.7, 7.8, 7.2, 7.0, 7.2, 7.6, 8.3, 9.2, 10.1, 10.0, 10.1, 10.4, 11.0, 11.7, 12.1, 12.0, 12.1, 12.4, 12.8, 13.4, 15.1, 15.0, 15.1, 15.3, 15.7, 16.2, 17.1, 17.0, 17.1, 17.3, 17.6, 18.0, 20.1, 20.0, 20.1, 20.2, 20.5, 20.9, 22.1, 22.0, 22.1, 22.2, 22.5, 22.8, 25.0, 25.0, 25.0, 25.2, 25.4, 25.7, 27.0, 27.0, 27.0, 27.2, 27.4, 27.7], [0, 0, 0, 0, 0, 0, 0, 0, 0, 0, 0, 0, 0, 0, 0, 0, 0, 0, 0, 0, 0, 0, 0, 0, 0, 0, 0, 1.5, 3.0, 4.5, 3.6, 2.5, 2.0, 2.5, 3.6, 4.9, 5.8, 5.2, 5.0, 5.2, 5.8, 6.7, 7.6, 7.2, 7.0, 7.2, 7.6, 8.3, 10.4, 10.1, 10.0, 10.1, 10.4, 11.0, 12.4, 12.1, 12.0, 12.1, 12.4, 12.8, 15.3, 15.1, 15.0, 15.1, 15.3, 15.7, 17.3, 17.1, 17.0, 17.1, 17.3, 17.6, 20.2, 20.1, 20.0, 20.1, 20.2, 20.5, 22.2, 22.1, 22.0, 22.1, 22.2, 22.5, 25.2, 25.0, 25.0, 25.0, 25.2, 25.4, 27.2, 27.0, 27.0, 27.0, 27.2, 27.4], [0, 0, 0, 0, 0, 0, 0, 0, 0, 0, 0, 0, 0, 0, 0, 0, 0, 0, 0, 0, 0, 0, 0, 0, 0, 0, 0, 0, 1.5, 3.0, 4.9, 3.6, 2.5, 2.0, 2.5, 3.6, 6.7, 5.8, 5.2, 5.0, 5.2, 5.8, 8.3, 7.6, 7.2, 7.0, 7.2, 7.6, 11.0, 10.4, 10.1, 10.0, 10.1, 10.4, 12.8, 12.4, 12.1, 12.0, 12.1, 12.4, 15.7, 15.3, 15.1, 15.0, 15.1, 15.3, 17.6, 17.3, 17.1, 17.0, 17.1, 17.3, 20.5, 20.2, 20.1, 20.0, 20.1, 20.2, 22.5, 22.2, 22.1, 22.0, 22.1, 22.2, 25.4, 25.2, 25.0, 25.0, 25.0, 25.2, 27.4, 27.2, 27.0, 27.0, 27.0, 27.2], [0, 0, 0, 0, 0, 0, 0, 0, 0, 0, 0, 0, 0, 0, 0, 0, 0, 0, 0, 0, 0, 0, 0, 0, 0, 0, 0, 0, 0, 1.5, 6.3, 4.9, 3.6, 2.5, 2.0, 2.5, 7.8, 6.7, 5.8, 5.2, 5.0, 5.2, 9.2, 8.3, 7.6, 7.2, 7.0, 7.2, 11.7, 11.0, 10.4, 10.1, 10.0, 10.1, 13.4, 12.8, 12.4, 12.1, 12.0, 12.1, 16.2, 15.7, 15.3, 15.1, 15.0, 15.1, 18.0, 17.6, 17.3, 17.1, 17.0, 17.1, 20.9, 20.5, 20.2, 20.1, 20.0, 20.1, 22.8, 22.5, 22.2, 22.1, 22.0, 22.1, 25.7, 25.4, 25.2, 25.0, 25.0, 25.0, 27.7, 27.4, 27.2, 27.0, 27.0, 27.0], [0, 0, 0, 0, 0, 0, 0, 0, 0, 0, 0, 0, 0, 0, 0, 0, 0, 0, 0, 0, 0, 0, 0, 0, 0, 0, 0, 0, 0, 0, 7.8, 6.3, 4.9, 3.6, 2.5, 2.0, 9.0, 7.8, 6.7, 5.8, 5.2, 5.0, 10.3, 9.2, 8.3, 7.6, 7.2, 7.0, 12.5, 11.7, 11.0, 10.4, 10.1, 10.0, 14.2, 13.4, 12.8, 12.4, 12.1, 12.0, 16.8, 16.2, 15.7, 15.3, 15.1, 15.0, 18.6, 18.0, 17.6, 17.3, 17.1, 17.0, 21.4, 20.9, 20.5, 20.2, 20.1, 20.0, 23.2, 22.8, 22.5, 22.2, 22.1, 22.0, 26.1, 25.7, 25.4, 25.2, 25.0, 25.0, 28.0, 27.7, 27.4, 27.2, 27.0, 27.0], [0, 0, 0, 0, 0, 0, 0, 0, 0, 0, 0, 0, 0, 0, 0, 0, 0, 0, 0, 0, 0, 0, 0, 0, 0, 0, 0, 0, 0, 0, 0, 1.5, 3.0, 4.5, 6.0, 7.5, 3.0, 3.4, 4.2, 5.4, 6.7, 8.1, 5.0, 5.2, 5.8, 6.7, 7.8, 9.0, 8.0, 8.1, 8.5, 9.2, 10.0, 11.0, 10.0, 10.1, 10.4, 11.0, 11.7, 12.5, 13.0, 13.1, 13.3, 13.8, 14.3, 15.0, 15.0, 15.1, 15.3, 15.7, 16.2, 16.8, 18.0, 18.1, 18.2, 18.6, 19.0, 19.5, 20.0, 20.1, 20.2, 20.5, 20.9, 21.4, 23.0, 23.0, 23.2, 23.4, 23.8, 24.2, 25.0, 25.0, 25.2, 25.4, 25.7, 26.1], [0, 0, 0, 0, 0, 0, 0, 0, 0, 0, 0, 0, 0, 0, 0, 0, 0, 0, 0, 0, 0, 0, 0, 0, 0, 0, 0, 0, 0, 0, 0, 0, 1.5, 3.0, 4.5, 6.0, 3.4, 3.0, 3.4, 4.2, 5.4, 6.7, 5.2, 5.0, 5.2, 5.8, 6.7, 7.8, 8.1, 8.0, 8.1, 8.5, 9.2, 10.0, 10.1, 10.0, 10.1, 10.4, 11.0, 11.7, 13.1, 13.0, 13.1, 13.3, 13.8, 14.3, 15.1, 15.0, 15.1, 15.3, 15.7, 16.2, 18.1, 18.0, 18.1, 18.2, 18.6, 19.0, 20.1, 20.0, 20.1, 20.2, 20.5, 20.9, 23.0, 23.0, 23.0, 23.2, 23.4, 23.8, 25.0, 25.0, 25.0, 25.2, 25.4, 25.7], [0, 0, 0, 0, 0, 0, 0, 0, 0, 0, 0, 0, 0, 0, 0, 0, 0, 0, 0, 0, 0, 0, 0, 0, 0, 0, 0, 0, 0, 0, 0, 0, 0, 1.5, 3.0, 4.5, 4.2, 3.4, 3.0, 3.4, 4.2, 5.4, 5.8, 5.2, 5.0, 5.2, 5.8, 6.7, 8.5, 8.1, 8.0, 8.1, 8.5, 9.2, 10.4, 10.1, 10.0, 10.1, 10.4, 11.0, 13.3, 13.1, 13.0, 13.1, 13.3, 13.8, 15.3, 15.1, 15.0, 15.1, 15.3, 15.7, 18.2, 18.1, 18.0, 18.1, 18.2, 18.6, 20.2, 20.1, 20.0, 20.1, 20.2, 20.5, 23.2, 23.0, 23.0, 23.0, 23.2, 23.4, 25.2, 25.0, 25.0, 25.0, 25.2, 25.4], [0, 0, 0, 0, 0, 0, 0, 0, 0, 0, 0, 0, 0, 0, 0, 0, 0, 0, 0, 0, 0, 0, 0, 0, 0, 0, 0, 0, 0, 0, 0, 0, 0, 0, 1.5, 3.0, 5.4, 4.2, 3.4, 3.0, 3.4, 4.2, 6.7, 5.8, 5.2, 5.0, 5.2, 5.8, 9.2, 8.5, 8.1, 8.0, 8.1, 8.5, 11.0, 10.4, 10.1, 10.0, 10.1, 10.4, 13.8, 13.3, 13.1, 13.0, 13.1, 13.3, 15.7, 15.3, 15.1, 15.0, 15.1, 15.3, 18.6, 18.2, 18.1, 18.0, 18.1, 18.2, 20.5, 20.2, 20.1, 20.0, 20.1, 20.2, 23.4, 23.2, 23.0, 23.0, 23.0, 23.2, 25.4, 25.2, 25.0, 25.0, 25.0, 25.2], [0, 0, 0, 0, 0, 0, 0, 0, 0, 0, 0, 0, 0, 0, 0, 0, 0, 0, 0, 0, 0, 0, 0, 0, 0, 0, 0, 0, 0, 0, 0, 0, 0, 0, 0, 1.5, 6.7, 5.4, 4.2, 3.4, 3.0, 3.4, 7.8, 6.7, 5.8, 5.2, 5.0, 5.2, 10.0, 9.2, 8.5, 8.1, 8.0, 8.1, 11.7, 11.0, 10.4, 10.1, 10.0, 10.1, 14.3, 13.8, 13.3, 13.1, 13.0, 13.1, 16.2, 15.7, 15.3, 15.1, 15.0, 15.1, 19.0, 18.6, 18.2, 18.1, 18.0, 18.1, 20.9, 20.5, 20.2, 20.1, 20.0, 20.1, 23.8, 23.4, 23.2, 23.0, 23.0, 23.0, 25.7, 25.4, 25.2, 25.0, 25.0, 25.0], [0, 0, 0, 0, 0, 0, 0, 0, 0, 0, 0, 0, 0, 0, 0, 0, 0, 0, 0, 0, 0, 0, 0, 0, 0, 0, 0, 0, 0, 0, 0, 0, 0, 0, 0, 0, 8.1, 6.7, 5.4, 4.2, 3.4, 3.0, 9.0, 7.8, 6.7, 5.8, 5.2, 5.0, 11.0, 10.0, 9.2, 8.5, 8.1, 8.0, 12.5, 11.7, 11.0, 10.4, 10.1, 10.0, 15.0, 14.3, 13.8, 13.3, 13.1, 13.0, 16.8, 16.2, 15.7, 15.3, 15.1, 15.0, 19.5, 19.0, 18.6, 18.2, 18.1, 18.0, 21.4, 20.9, 20.5, 20.2, 20.1, 20.0, 24.2, 23.8, 23.4, 23.2, 23.0, 23.0, 26.1, 25.7, 25.4, 25.2, 25.0, 25.0], [0, 0, 0, 0, 0, 0, 0, 0, 0, 0, 0, 0, 0, 0, 0, 0, 0, 0, 0, 0, 0, 0, 0, 0, 0, 0, 0, 0, 0, 0, 0, 0, 0, 0, 0, 0, 0, 1.5, 3.0, 4.5, 6.0, 7.5, 2.0, 2.5, 3.6, 4.9, 6.3, 7.8, 5.0, 5.2, 5.8, 6.7, 7.8, 9.0, 7.0, 7.2, 7.6, 8.3, 9.2, 10.3, 10.0, 10.1, 10.4, 11.0, 11.7, 12.5, 12.0, 12.1, 12.4, 12.8, 13.4, 14.2, 15.0, 15.1, 15.3, 15.7, 16.2, 16.8, 17.0, 17.1, 17.3, 17.6, 18.0, 18.6, 20.0, 20.1, 20.2, 20.5, 20.9, 21.4, 22.0, 22.1, 22.2, 22.5, 22.8, 23.2], [0, 0, 0, 0, 0, 0, 0, 0, 0, 0, 0, 0, 0, 0, 0, 0, 0, 0, 0, 0, 0, 0, 0, 0, 0, 0, 0, 0, 0, 0, 0, 0, 0, 0, 0, 0, 0, 0, 1.5, 3.0, 4.5, 6.0, 2.5, 2.0, 2.5, 3.6, 4.9, 6.3, 5.2, 5.0, 5.2, 5.8, 6.7, 7.8, 7.2, 7.0, 7.2, 7.6, 8.3, 9.2, 10.1, 10.0, 10.1, 10.4, 11.0, 11.7, 12.1, 12.0, 12.1, 12.4, 12.8, 13.4, 15.1, 15.0, 15.1, 15.3, 15.7, 16.2, 17.1, 17.0, 17.1, 17.3, 17.6, 18.0, 20.1, 20.0, 20.1, 20.2, 20.5, 20.9, 22.1, 22.0, 22.1, 22.2, 22.5, 22.8], [0, 0, 0, 0, 0, 0, 0, 0, 0, 0, 0, 0, 0, 0, 0, 0, 0, 0, 0, 0, 0, 0, 0, 0, 0, 0, 0, 0, 0, 0, 0, 0, 0, 0, 0, 0, 0, 0, 0, 1.5, 3.0, 4.5, 3.6, 2.5, 2.0, 2.5, 3.6, 4.9, 5.8, 5.2, 5.0, 5.2, 5.8, 6.7, 7.6, 7.2, 7.0, 7.2, 7.6, 8.3, 10.4, 10.1, 10.0, 10.1, 10.4, 11.0, 12.4, 12.1, 12.0, 12.1, 12.4, 12.8, 15.3, 15.1, 15.0, 15.1, 15.3, 15.7, 17.3, 17.1, 17.0, 17.1, 17.3, 17.6, 20.2, 20.1, 20.0, 20.1, 20.2, 20.5, 22.2, 22.1, 22.0, 22.1, 22.2, 22.5], [0, 0, 0, 0, 0, 0, 0, 0, 0, 0, 0, 0, 0, 0, 0, 0, 0, 0, 0, 0, 0, 0, 0, 0, 0, 0, 0, 0, 0, 0, 0, 0, 0, 0, 0, 0, 0, 0, 0, 0, 1.5, 3.0, 4.9, 3.6, 2.5, 2.0, 2.5, 3.6, 6.7, 5.8, 5.2, 5.0, 5.2, 5.8, 8.3, 7.6, 7.2, 7.0, 7.2, 7.6, 11.0, 10.4, 10.1, 10.0, 10.1, 10.4, 12.8, 12.4, 12.1, 12.0, 12.1, 12.4, 15.7, 15.3, 15.1, 15.0, 15.1, 15.3, 17.6, 17.3, 17.1, 17.0, 17.1, 17.3, 20.5, 20.2, 20.1, 20.0, 20.1, 20.2, 22.5, 22.2, 22.1, 22.0, 22.1, 22.2], [0, 0, 0, 0, 0, 0, 0, 0, 0, 0, 0, 0, 0, 0, 0, 0, 0, 0, 0, 0, 0, 0, 0, 0, 0, 0, 0, 0, 0, 0, 0, 0, 0, 0, 0, 0, 0, 0, 0, 0, 0, 1.5, 6.3, 4.9, 3.6, 2.5, 2.0, 2.5, 7.8, 6.7, 5.8, 5.2, 5.0, 5.2, 9.2, 8.3, 7.6, 7.2, 7.0, 7.2, 11.7, 11.0, 10.4, 10.1, 10.0, 10.1, 13.4, 12.8, 12.4, 12.1, 12.0, 12.1, 16.2, 15.7, 15.3, 15.1, 15.0, 15.1, 18.0, 17.6, 17.3, 17.1, 17.0, 17.1, 20.9, 20.5, 20.2, 20.1, 20.0, 20.1, 22.8, 22.5, 22.2, 22.1, 22.0, 22.1], [0, 0, 0, 0, 0, 0, 0, 0, 0, 0, 0, 0, 0, 0, 0, 0, 0, 0, 0, 0, 0, 0, 0, 0, 0, 0, 0, 0, 0, 0, 0, 0, 0, 0, 0, 0, 0, 0, 0, 0, 0, 0, 7.8, 6.3, 4.9, 3.6, 2.5, 2.0, 9.0, 7.8, 6.7, 5.8, 5.2, 5.0, 10.3, 9.2, 8.3, 7.6, 7.2, 7.0, 12.5, 11.7, 11.0, 10.4, 10.1, 10.0, 14.2, 13.4, 12.8, 12.4, 12.1, 12.0, 16.8, 16.2, 15.7, 15.3, 15.1, 15.0, 18.6, 18.0, 17.6, 17.3, 17.1, 17.0, 21.4, 20.9, 20.5, 20.2, 20.1, 20.0, 23.2, 22.8, 22.5, 22.2, 22.1, 22.0], [0, 0, 0, 0, 0, 0, 0, 0, 0, 0, 0, 0, 0, 0, 0, 0, 0, 0, 0, 0, 0, 0, 0, 0, 0, 0, 0, 0, 0, 0, 0, 0, 0, 0, 0, 0, 0, 0, 0, 0, 0, 0, 0, 1.5, 3.0, 4.5, 6.0, 7.5, 3.0, 3.4, 4.2, 5.4, 6.7, 8.1, 5.0, 5.2, 5.8, 6.7, 7.8, 9.0, 8.0, 8.1, 8.5, 9.2, 10.0, 11.0, 10.0, 10.1, 10.4, 11.0, 11.7, 12.5, 13.0, 13.1, 13.3, 13.8, 14.3, 15.0, 15.0, 15.1, 15.3, 15.7, 16.2, 16.8, 18.0, 18.1, 18.2, 18.6, 19.0, 19.5, 20.0, 20.1, 20.2, 20.5, 20.9, 21.4], [0, 0, 0, 0, 0, 0, 0, 0, 0, 0, 0, 0, 0, 0, 0, 0, 0, 0, 0, 0, 0, 0, 0, 0, 0, 0, 0, 0, 0, 0, 0, 0, 0, 0, 0, 0, 0, 0, 0, 0, 0, 0, 0, 0, 1.5, 3.0, 4.5, 6.0, 3.4, 3.0, 3.4, 4.2, 5.4, 6.7, 5.2, 5.0, 5.2, 5.8, 6.7, 7.8, 8.1, 8.0, 8.1, 8.5, 9.2, 10.0, 10.1, 10.0, 10.1, 10.4, 11.0, 11.7, 13.1, 13.0, 13.1, 13.3, 13.8, 14.3, 15.1, 15.0, 15.1, 15.3, 15.7, 16.2, 18.1, 18.0, 18.1, 18.2, 18.6, 19.0, 20.1, 20.0, 20.1, 20.2, 20.5, 20.9], [0, 0, 0, 0, 0, 0, 0, 0, 0, 0, 0, 0, 0, 0, 0, 0, 0, 0, 0, 0, 0, 0, 0, 0, 0, 0, 0, 0, 0, 0, 0, 0, 0, 0, 0, 0, 0, 0, 0, 0, 0, 0, 0, 0, 0, 1.5, 3.0, 4.5, 4.2, 3.4, 3.0, 3.4, 4.2, 5.4, 5.8, 5.2, 5.0, 5.2, 5.8, 6.7, 8.5, 8.1, 8.0, 8.1, 8.5, 9.2, 10.4, 10.1, 10.0, 10.1, 10.4, 11.0, 13.3, 13.1, 13.0, 13.1, 13.3, 13.8, 15.3, 15.1, 15.0, 15.1, 15.3, 15.7, 18.2, 18.1, 18.0, 18.1, 18.2, 18.6, 20.2, 20.1, 20.0, 20.1, 20.2, 20.5], [0, 0, 0, 0, 0, 0, 0, 0, 0, 0, 0, 0, 0, 0, 0, 0, 0, 0, 0, 0, 0, 0, 0, 0, 0, 0, 0, 0, 0, 0, 0, 0, 0, 0, 0, 0, 0, 0, 0, 0, 0, 0, 0, 0, 0, 0, 1.5, 3.0, 5.4, 4.2, 3.4, 3.0, 3.4, 4.2, 6.7, 5.8, 5.2, 5.0, 5.2, 5.8, 9.2, 8.5, 8.1, 8.0, 8.1, 8.5, 11.0, 10.4, 10.1, 10.0, 10.1, 10.4, 13.8, 13.3, 13.1, 13.0, 13.1, 13.3, 15.7, 15.3, 15.1, 15.0, 15.1, 15.3, 18.6, 18.2, 18.1, 18.0, 18.1, 18.2, 20.5, 20.2, 20.1, 20.0, 20.1, 20.2], [0, 0, 0, 0, 0, 0, 0, 0, 0, 0, 0, 0, 0, 0, 0, 0, 0, 0, 0, 0, 0, 0, 0, 0, 0, 0, 0, 0, 0, 0, 0, 0, 0, 0, 0, 0, 0, 0, 0, 0, 0, 0, 0, 0, 0, 0, 0, 1.5, 6.7, 5.4, 4.2, 3.4, 3.0, 3.4, 7.8, 6.7, 5.8, 5.2, 5.0, 5.2, 10.0, 9.2, 8.5, 8.1, 8.0, 8.1, 11.7, 11.0, 10.4, 10.1, 10.0, 10.1, 14.3, 13.8, 13.3, 13.1, 13.0, 13.1, 16.2, 15.7, 15.3, 15.1, 15.0, 15.1, 19.0, 18.6, 18.2, 18.1, 18.0, 18.1, 20.9, 20.5, 20.2, 20.1, 20.0, 20.1], [0, 0, 0, 0, 0, 0, 0, 0, 0, 0, 0, 0, 0, 0, 0, 0, 0, 0, 0, 0, 0, 0, 0, 0, 0, 0, 0, 0, 0, 0, 0, 0, 0, 0, 0, 0, 0, 0, 0, 0, 0, 0, 0, 0, 0, 0, 0, 0, 8.1, 6.7, 5.4, 4.2, 3.4, 3.0, 9.0, 7.8, 6.7, 5.8, 5.2, 5.0, 11.0, 10.0, 9.2, 8.5, 8.1, 8.0, 12.5, 11.7, 11.0, 10.4, 10.1, 10.0, 15.0, 14.3, 13.8, 13.3, 13.1, 13.0, 16.8, 16.2, 15.7, 15.3, 15.1, 15.0, 19.5, 19.0, 18.6, 18.2, 18.1, 18.0, 21.4, 20.9, 20.5, 20.2, 20.1, 20.0], [0, 0, 0, 0, 0, 0, 0, 0, 0, 0, 0, 0, 0, 0, 0, 0, 0, 0, 0, 0, 0, 0, 0, 0, 0, 0, 0, 0, 0, 0, 0, 0, 0, 0, 0, 0, 0, 0, 0, 0, 0, 0, 0, 0, 0, 0, 0, 0, 0, 1.5, 3.0, 4.5, 6.0, 7.5, 2.0, 2.5, 3.6, 4.9, 6.3, 7.8, 5.0, 5.2, 5.8, 6.7, 7.8, 9.0, 7.0, 7.2, 7.6, 8.3, 9.2, 10.3, 10.0, 10.1, 10.4, 11.0, 11.7, 12.5, 12.0, 12.1, 12.4, 12.8, 13.4, 14.2, 15.0, 15.1, 15.3, 15.7, 16.2, 16.8, 17.0, 17.1, 17.3, 17.6, 18.0, 18.6], [0, 0, 0, 0, 0, 0, 0, 0, 0, 0, 0, 0, 0, 0, 0, 0, 0, 0, 0, 0, 0, 0, 0, 0, 0, 0, 0, 0, 0, 0, 0, 0, 0, 0, 0, 0, 0, 0, 0, 0, 0, 0, 0, 0, 0, 0, 0, 0, 0, 0, 1.5, 3.0, 4.5, 6.0, 2.5, 2.0, 2.5, 3.6, 4.9, 6.3, 5.2, 5.0, 5.2, 5.8, 6.7, 7.8, 7.2, 7.0, 7.2, 7.6, 8.3, 9.2, 10.1, 10.0, 10.1, 10.4, 11.0, 11.7, 12.1, 12.0, 12.1, 12.4, 12.8, 13.4, 15.1, 15.0, 15.1, 15.3, 15.7, 16.2, 17.1, 17.0, 17.1, 17.3, 17.6, 18.0], [0, 0, 0, 0, 0, 0, 0, 0, 0, 0, 0, 0, 0, 0, 0, 0, 0, 0, 0, 0, 0, 0, 0, 0, 0, 0, 0, 0, 0, 0, 0, 0, 0, 0, 0, 0, 0, 0, 0, 0, 0, 0, 0, 0, 0, 0, 0, 0, 0, 0, 0, 1.5, 3.0, 4.5, 3.6, 2.5, 2.0, 2.5, 3.6, 4.9, 5.8, 5.2, 5.0, 5.2, 5.8, 6.7, 7.6, 7.2, 7.0, 7.2, 7.6, 8.3, 10.4, 10.1, 10.0, 10.1, 10.4, 11.0, 12.4, 12.1, 12.0, 12.1, 12.4, 12.8, 15.3, 15.1, 15.0, 15.1, 15.3, 15.7, 17.3, 17.1, 17.0, 17.1, 17.3, 17.6], [0, 0, 0, 0, 0, 0, 0, 0, 0, 0, 0, 0, 0, 0, 0, 0, 0, 0, 0, 0, 0, 0, 0, 0, 0, 0, 0, 0, 0, 0, 0, 0, 0, 0, 0, 0, 0, 0, 0, 0, 0, 0, 0, 0, 0, 0, 0, 0, 0, 0, 0, 0, 1.5, 3.0, 4.9, 3.6, 2.5, 2.0, 2.5, 3.6, 6.7, 5.8, 5.2, 5.0, 5.2, 5.8, 8.3, 7.6, 7.2, 7.0, 7.2, 7.6, 11.0, 10.4, 10.1, 10.0, 10.1, 10.4, 12.8, 12.4, 12.1, 12.0, 12.1, 12.4, 15.7, 15.3, 15.1, 15.0, 15.1, 15.3, 17.6, 17.3, 17.1, 17.0, 17.1, 17.3], [0, 0, 0, 0, 0, 0, 0, 0, 0, 0, 0, 0, 0, 0, 0, 0, 0, 0, 0, 0, 0, 0, 0, 0, 0, 0, 0, 0, 0, 0, 0, 0, 0, 0, 0, 0, 0, 0, 0, 0, 0, 0, 0, 0, 0, 0, 0, 0, 0, 0, 0, 0, 0, 1.5, 6.3, 4.9, 3.6, 2.5, 2.0, 2.5, 7.8, 6.7, 5.8, 5.2, 5.0, 5.2, 9.2, 8.3, 7.6, 7.2, 7.0, 7.2, 11.7, 11.0, 10.4, 10.1, 10.0, 10.1, 13.4, 12.8, 12.4, 12.1, 12.0, 12.1, 16.2, 15.7, 15.3, 15.1, 15.0, 15.1, 18.0, 17.6, 17.3, 17.1, 17.0, 17.1], [0, 0, 0, 0, 0, 0, 0, 0, 0, 0, 0, 0, 0, 0, 0, 0, 0, 0, 0, 0, 0, 0, 0, 0, 0, 0, 0, 0, 0, 0, 0, 0, 0, 0, 0, 0, 0, 0, 0, 0, 0, 0, 0, 0, 0, 0, 0, 0, 0, 0, 0, 0, 0, 0, 7.8, 6.3, 4.9, 3.6, 2.5, 2.0, 9.0, 7.8, 6.7, 5.8, 5.2, 5.0, 10.3, 9.2, 8.3, 7.6, 7.2, 7.0, 12.5, 11.7, 11.0, 10.4, 10.1, 10.0, 14.2, 13.4, 12.8, 12.4, 12.1, 12.0, 16.8, 16.2, 15.7, 15.3, 15.1, 15.0, 18.6, 18.0, 17.6, 17.3, 17.1, 17.0], [0, 0, 0, 0, 0, 0, 0, 0, 0, 0, 0, 0, 0, 0, 0, 0, 0, 0, 0, 0, 0, 0, 0, 0, 0, 0, 0, 0, 0, 0, 0, 0, 0, 0, 0, 0, 0, 0, 0, 0, 0, 0, 0, 0, 0, 0, 0, 0, 0, 0, 0, 0, 0, 0, 0, 1.5, 3.0, 4.5, 6.0, 7.5, 3.0, 3.4, 4.2, 5.4, 6.7, 8.1, 5.0, 5.2, 5.8, 6.7, 7.8, 9.0, 8.0, 8.1, 8.5, 9.2, 10.0, 11.0, 10.0, 10.1, 10.4, 11.0, 11.7, 12.5, 13.0, 13.1, 13.3, 13.8, 14.3, 15.0, 15.0, 15.1, 15.3, 15.7, 16.2, 16.8], [0, 0, 0, 0, 0, 0, 0, 0, 0, 0, 0, 0, 0, 0, 0, 0, 0, 0, 0, 0, 0, 0, 0, 0, 0, 0, 0, 0, 0, 0, 0, 0, 0, 0, 0, 0, 0, 0, 0, 0, 0, 0, 0, 0, 0, 0, 0, 0, 0, 0, 0, 0, 0, 0, 0, 0, 1.5, 3.0, 4.5, 6.0, 3.4, 3.0, 3.4, 4.2, 5.4, 6.7, 5.2, 5.0, 5.2, 5.8, 6.7, 7.8, 8.1, 8.0, 8.1, 8.5, 9.2, 10.0, 10.1, 10.0, 10.1, 10.4, 11.0, 11.7, 13.1, 13.0, 13.1, 13.3, 13.8, 14.3, 15.1, 15.0, 15.1, 15.3, 15.7, 16.2], [0, 0, 0, 0, 0, 0, 0, 0, 0, 0, 0, 0, 0, 0, 0, 0, 0, 0, 0, 0, 0, 0, 0, 0, 0, 0, 0, 0, 0, 0, 0, 0, 0, 0, 0, 0, 0, 0, 0, 0, 0, 0, 0, 0, 0, 0, 0, 0, 0, 0, 0, 0, 0, 0, 0, 0, 0, 1.5, 3.0, 4.5, 4.2, 3.4, 3.0, 3.4, 4.2, 5.4, 5.8, 5.2, 5.0, 5.2, 5.8, 6.7, 8.5, 8.1, 8.0, 8.1, 8.5, 9.2, 10.4, 10.1, 10.0, 10.1, 10.4, 11.0, 13.3, 13.1, 13.0, 13.1, 13.3, 13.8, 15.3, 15.1, 15.0, 15.1, 15.3, 15.7], [0, 0, 0, 0, 0, 0, 0, 0, 0, 0, 0, 0, 0, 0, 0, 0, 0, 0, 0, 0, 0, 0, 0, 0, 0, 0, 0, 0, 0, 0, 0, 0, 0, 0, 0, 0, 0, 0, 0, 0, 0, 0, 0, 0, 0, 0, 0, 0, 0, 0, 0, 0, 0, 0, 0, 0, 0, 0, 1.5, 3.0, 5.4, 4.2, 3.4, 3.0, 3.4, 4.2, 6.7, 5.8, 5.2, 5.0, 5.2, 5.8, 9.2, 8.5, 8.1, 8.0, 8.1, 8.5, 11.0, 10.4, 10.1, 10.0, 10.1, 10.4, 13.8, 13.3, 13.1, 13.0, 13.1, 13.3, 15.7, 15.3, 15.1, 15.0, 15.1, 15.3], [0, 0, 0, 0, 0, 0, 0, 0, 0, 0, 0, 0, 0, 0, 0, 0, 0, 0, 0, 0, 0, 0, 0, 0, 0, 0, 0, 0, 0, 0, 0, 0, 0, 0, 0, 0, 0, 0, 0, 0, 0, 0, 0, 0, 0, 0, 0, 0, 0, 0, 0, 0, 0, 0, 0, 0, 0, 0, 0, 1.5, 6.7, 5.4, 4.2, 3.4, 3.0, 3.4, 7.8, 6.7, 5.8, 5.2, 5.0, 5.2, 10.0, 9.2, 8.5, 8.1, 8.0, 8.1, 11.7, 11.0, 10.4, 10.1, 10.0, 10.1, 14.3, 13.8, 13.3, 13.1, 13.0, 13.1, 16.2, 15.7, 15.3, 15.1, 15.0, 15.1], [0, 0, 0, 0, 0, 0, 0, 0, 0, 0, 0, 0, 0, 0, 0, 0, 0, 0, 0, 0, 0, 0, 0, 0, 0, 0, 0, 0, 0, 0, 0, 0, 0, 0, 0, 0, 0, 0, 0, 0, 0, 0, 0, 0, 0, 0, 0, 0, 0, 0, 0, 0, 0, 0, 0, 0, 0, 0, 0, 0, 8.1, 6.7, 5.4, 4.2, 3.4, 3.0, 9.0, 7.8, 6.7, 5.8, 5.2, 5.0, 11.0, 10.0, 9.2, 8.5, 8.1, 8.0, 12.5, 11.7, 11.0, 10.4, 10.1, 10.0, 15.0, 14.3, 13.8, 13.3, 13.1, 13.0, 16.8, 16.2, 15.7, 15.3, 15.1, 15.0], [0, 0, 0, 0, 0, 0, 0, 0, 0, 0, 0, 0, 0, 0, 0, 0, 0, 0, 0, 0, 0, 0, 0, 0, 0, 0, 0, 0, 0, 0, 0, 0, 0, 0, 0, 0, 0, 0, 0, 0, 0, 0, 0, 0, 0, 0, 0, 0, 0, 0, 0, 0, 0, 0, 0, 0, 0, 0, 0, 0, 0, 1.5, 3.0, 4.5, 6.0, 7.5, 2.0, 2.5, 3.6, 4.9, 6.3, 7.8, 5.0, 5.2, 5.8, 6.7, 7.8, 9.0, 7.0, 7.2, 7.6, 8.3, 9.2, 10.3, 10.0, 10.1, 10.4, 11.0, 11.7, 12.5, 12.0, 12.1, 12.4, 12.8, 13.4, 14.2], [0, 0, 0, 0, 0, 0, 0, 0, 0, 0, 0, 0, 0, 0, 0, 0, 0, 0, 0, 0, 0, 0, 0, 0, 0, 0, 0, 0, 0, 0, 0, 0, 0, 0, 0, 0, 0, 0, 0, 0, 0, 0, 0, 0, 0, 0, 0, 0, 0, 0, 0, 0, 0, 0, 0, 0, 0, 0, 0, 0, 0, 0, 1.5, 3.0, 4.5, 6.0, 2.5, 2.0, 2.5, 3.6, 4.9, 6.3, 5.2, 5.0, 5.2, 5.8, 6.7, 7.8, 7.2, 7.0, 7.2, 7.6, 8.3, 9.2, 10.1, 10.0, 10.1, 10.4, 11.0, 11.7, 12.1, 12.0, 12.1, 12.4, 12.8, 13.4], [0, 0, 0, 0, 0, 0, 0, 0, 0, 0, 0, 0, 0, 0, 0, 0, 0, 0, 0, 0, 0, 0, 0, 0, 0, 0, 0, 0, 0, 0, 0, 0, 0, 0, 0, 0, 0, 0, 0, 0, 0, 0, 0, 0, 0, 0, 0, 0, 0, 0, 0, 0, 0, 0, 0, 0, 0, 0, 0, 0, 0, 0, 0, 1.5, 3.0, 4.5, 3.6, 2.5, 2.0, 2.5, 3.6, 4.9, 5.8, 5.2, 5.0, 5.2, 5.8, 6.7, 7.6, 7.2, 7.0, 7.2, 7.6, 8.3, 10.4, 10.1, 10.0, 10.1, 10.4, 11.0, 12.4, 12.1, 12.0, 12.1, 12.4, 12.8], [0, 0, 0, 0, 0, 0, 0, 0, 0, 0, 0, 0, 0, 0, 0, 0, 0, 0, 0, 0, 0, 0, 0, 0, 0, 0, 0, 0, 0, 0, 0, 0, 0, 0, 0, 0, 0, 0, 0, 0, 0, 0, 0, 0, 0, 0, 0, 0, 0, 0, 0, 0, 0, 0, 0, 0, 0, 0, 0, 0, 0, 0, 0, 0, 1.5, 3.0, 4.9, 3.6, 2.5, 2.0, 2.5, 3.6, 6.7, 5.8, 5.2, 5.0, 5.2, 5.8, 8.3, 7.6, 7.2, 7.0, 7.2, 7.6, 11.0, 10.4, 10.1, 10.0, 10.1, 10.4, 12.8, 12.4, 12.1, 12.0, 12.1, 12.4], [0, 0, 0, 0, 0, 0, 0, 0, 0, 0, 0, 0, 0, 0, 0, 0, 0, 0, 0, 0, 0, 0, 0, 0, 0, 0, 0, 0, 0, 0, 0, 0, 0, 0, 0, 0, 0, 0, 0, 0, 0, 0, 0, 0, 0, 0, 0, 0, 0, 0, 0, 0, 0, 0, 0, 0, 0, 0, 0, 0, 0, 0, 0, 0, 0, 1.5, 6.3, 4.9, 3.6, 2.5, 2.0, 2.5, 7.8, 6.7, 5.8, 5.2, 5.0, 5.2, 9.2, 8.3, 7.6, 7.2, 7.0, 7.2, 11.7, 11.0, 10.4, 10.1, 10.0, 10.1, 13.4, 12.8, 12.4, 12.1, 12.0, 12.1], [0, 0, 0, 0, 0, 0, 0, 0, 0, 0, 0, 0, 0, 0, 0, 0, 0, 0, 0, 0, 0, 0, 0, 0, 0, 0, 0, 0, 0, 0, 0, 0, 0, 0, 0, 0, 0, 0, 0, 0, 0, 0, 0, 0, 0, 0, 0, 0, 0, 0, 0, 0, 0, 0, 0, 0, 0, 0, 0, 0, 0, 0, 0, 0, 0, 0, 7.8, 6.3, 4.9, 3.6, 2.5, 2.0, 9.0, 7.8, 6.7, 5.8, 5.2, 5.0, 10.3, 9.2, 8.3, 7.6, 7.2, 7.0, 12.5, 11.7, 11.0, 10.4, 10.1, 10.0, 14.2, 13.4, 12.8, 12.4, 12.1, 12.0], [0, 0, 0, 0, 0, 0, 0, 0, 0, 0, 0, 0, 0, 0, 0, 0, 0, 0, 0, 0, 0, 0, 0, 0, 0, 0, 0, 0, 0, 0, 0, 0, 0, 0, 0, 0, 0, 0, 0, 0, 0, 0, 0, 0, 0, 0, 0, 0, 0, 0, 0, 0, 0, 0, 0, 0, 0, 0, 0, 0, 0, 0, 0, 0, 0, 0, 0, 1.5, 3.0, 4.5, 6.0, 7.5, 3.0, 3.4, 4.2, 5.4, 6.7, 8.1, 5.0, 5.2, 5.8, 6.7, 7.8, 9.0, 8.0, 8.1, 8.5, 9.2, 10.0, 11.0, 10.0, 10.1, 10.4, 11.0, 11.7, 12.5], [0, 0, 0, 0, 0, 0, 0, 0, 0, 0, 0, 0, 0, 0, 0, 0, 0, 0, 0, 0, 0, 0, 0, 0, 0, 0, 0, 0, 0, 0, 0, 0, 0, 0, 0, 0, 0, 0, 0, 0, 0, 0, 0, 0, 0, 0, 0, 0, 0, 0, 0, 0, 0, 0, 0, 0, 0, 0, 0, 0, 0, 0, 0, 0, 0, 0, 0, 0, 1.5, 3.0, 4.5, 6.0, 3.4, 3.0, 3.4, 4.2, 5.4, 6.7, 5.2, 5.0, 5.2, 5.8, 6.7, 7.8, 8.1, 8.0, 8.1, 8.5, 9.2, 10.0, 10.1, 10.0, 10.1, 10.4, 11.0, 11.7], [0, 0, 0, 0, 0, 0, 0, 0, 0, 0, 0, 0, 0, 0, 0, 0, 0, 0, 0, 0, 0, 0, 0, 0, 0, 0, 0, 0, 0, 0, 0, 0, 0, 0, 0, 0, 0, 0, 0, 0, 0, 0, 0, 0, 0, 0, 0, 0, 0, 0, 0, 0, 0, 0, 0, 0, 0, 0, 0, 0, 0, 0, 0, 0, 0, 0, 0, 0, 0, 1.5, 3.0, 4.5, 4.2, 3.4, 3.0, 3.4, 4.2, 5.4, 5.8, 5.2, 5.0, 5.2, 5.8, 6.7, 8.5, 8.1, 8.0, 8.1, 8.5, 9.2, 10.4, 10.1, 10.0, 10.1, 10.4, 11.0], [0, 0, 0, 0, 0, 0, 0, 0, 0, 0, 0, 0, 0, 0, 0, 0, 0, 0, 0, 0, 0, 0, 0, 0, 0, 0, 0, 0, 0, 0, 0, 0, 0, 0, 0, 0, 0, 0, 0, 0, 0, 0, 0, 0, 0, 0, 0, 0, 0, 0, 0, 0, 0, 0, 0, 0, 0, 0, 0, 0, 0, 0, 0, 0, 0, 0, 0, 0, 0, 0, 1.5, 3.0, 5.4, 4.2, 3.4, 3.0, 3.4, 4.2, 6.7, 5.8, 5.2, 5.0, 5.2, 5.8, 9.2, 8.5, 8.1, 8.0, 8.1, 8.5, 11.0, 10.4, 10.1, 10.0, 10.1, 10.4], [0, 0, 0, 0, 0, 0, 0, 0, 0, 0, 0, 0, 0, 0, 0, 0, 0, 0, 0, 0, 0, 0, 0, 0, 0, 0, 0, 0, 0, 0, 0, 0, 0, 0, 0, 0, 0, 0, 0, 0, 0, 0, 0, 0, 0, 0, 0, 0, 0, 0, 0, 0, 0, 0, 0, 0, 0, 0, 0, 0, 0, 0, 0, 0, 0, 0, 0, 0, 0, 0, 0, 1.5, 6.7, 5.4, 4.2, 3.4, 3.0, 3.4, 7.8, 6.7, 5.8, 5.2, 5.0, 5.2, 10.0, 9.2, 8.5, 8.1, 8.0, 8.1, 11.7, 11.0, 10.4, 10.1, 10.0, 10.1], [0, 0, 0, 0, 0, 0, 0, 0, 0, 0, 0, 0, 0, 0, 0, 0, 0, 0, 0, 0, 0, 0, 0, 0, 0, 0, 0, 0, 0, 0, 0, 0, 0, 0, 0, 0, 0, 0, 0, 0, 0, 0, 0, 0, 0, 0, 0, 0, 0, 0, 0, 0, 0, 0, 0, 0, 0, 0, 0, 0, 0, 0, 0, 0, 0, 0, 0, 0, 0, 0, 0, 0, 8.1, 6.7, 5.4, 4.2, 3.4, 3.0, 9.0, 7.8, 6.7, 5.8, 5.2, 5.0, 11.0, 10.0, 9.2, 8.5, 8.1, 8.0, 12.5, 11.7, 11.0, 10.4, 10.1, 10.0], [0, 0, 0, 0, 0, 0, 0, 0, 0, 0, 0, 0, 0, 0, 0, 0, 0, 0, 0, 0, 0, 0, 0, 0, 0, 0, 0, 0, 0, 0, 0, 0, 0, 0, 0, 0, 0, 0, 0, 0, 0, 0, 0, 0, 0, 0, 0, 0, 0, 0, 0, 0, 0, 0, 0, 0, 0, 0, 0, 0, 0, 0, 0, 0, 0, 0, 0, 0, 0, 0, 0, 0, 0, 1.5, 3.0, 4.5, 6.0, 7.5, 2.0, 2.5, 3.6, 4.9, 6.3, 7.8, 5.0, 5.2, 5.8, 6.7, 7.8, 9.0, 7.0, 7.2, 7.6, 8.3, 9.2, 10.3], [0, 0, 0, 0, 0, 0, 0, 0, 0, 0, 0, 0, 0, 0, 0, 0, 0, 0, 0, 0, 0, 0, 0, 0, 0, 0, 0, 0, 0, 0, 0, 0, 0, 0, 0, 0, 0, 0, 0, 0, 0, 0, 0, 0, 0, 0, 0, 0, 0, 0, 0, 0, 0, 0, 0, 0, 0, 0, 0, 0, 0, 0, 0, 0, 0, 0, 0, 0, 0, 0, 0, 0, 0, 0, 1.5, 3.0, 4.5, 6.0, 2.5, 2.0, 2.5, 3.6, 4.9, 6.3, 5.2, 5.0, 5.2, 5.8, 6.7, 7.8, 7.2, 7.0, 7.2, 7.6, 8.3, 9.2], [0, 0, 0, 0, 0, 0, 0, 0, 0, 0, 0, 0, 0, 0, 0, 0, 0, 0, 0, 0, 0, 0, 0, 0, 0, 0, 0, 0, 0, 0, 0, 0, 0, 0, 0, 0, 0, 0, 0, 0, 0, 0, 0, 0, 0, 0, 0, 0, 0, 0, 0, 0, 0, 0, 0, 0, 0, 0, 0, 0, 0, 0, 0, 0, 0, 0, 0, 0, 0, 0, 0, 0, 0, 0, 0, 1.5, 3.0, 4.5, 3.6, 2.5, 2.0, 2.5, 3.6, 4.9, 5.8, 5.2, 5.0, 5.2, 5.8, 6.7, 7.6, 7.2, 7.0, 7.2, 7.6, 8.3], [0, 0, 0, 0, 0, 0, 0, 0, 0, 0, 0, 0, 0, 0, 0, 0, 0, 0, 0, 0, 0, 0, 0, 0, 0, 0, 0, 0, 0, 0, 0, 0, 0, 0, 0, 0, 0, 0, 0, 0, 0, 0, 0, 0, 0, 0, 0, 0, 0, 0, 0, 0, 0, 0, 0, 0, 0, 0, 0, 0, 0, 0, 0, 0, 0, 0, 0, 0, 0, 0, 0, 0, 0, 0, 0, 0, 1.5, 3.0, 4.9, 3.6, 2.5, 2.0, 2.5, 3.6, 6.7, 5.8, 5.2, 5.0, 5.2, 5.8, 8.3, 7.6, 7.2, 7.0, 7.2, 7.6], [0, 0, 0, 0, 0, 0, 0, 0, 0, 0, 0, 0, 0, 0, 0, 0, 0, 0, 0, 0, 0, 0, 0, 0, 0, 0, 0, 0, 0, 0, 0, 0, 0, 0, 0, 0, 0, 0, 0, 0, 0, 0, 0, 0, 0, 0, 0, 0, 0, 0, 0, 0, 0, 0, 0, 0, 0, 0, 0, 0, 0, 0, 0, 0, 0, 0, 0, 0, 0, 0, 0, 0, 0, 0, 0, 0, 0, 1.5, 6.3, 4.9, 3.6, 2.5, 2.0, 2.5, 7.8, 6.7, 5.8, 5.2, 5.0, 5.2, 9.2, 8.3, 7.6, 7.2, 7.0, 7.2], [0, 0, 0, 0, 0, 0, 0, 0, 0, 0, 0, 0, 0, 0, 0, 0, 0, 0, 0, 0, 0, 0, 0, 0, 0, 0, 0, 0, 0, 0, 0, 0, 0, 0, 0, 0, 0, 0, 0, 0, 0, 0, 0, 0, 0, 0, 0, 0, 0, 0, 0, 0, 0, 0, 0, 0, 0, 0, 0, 0, 0, 0, 0, 0, 0, 0, 0, 0, 0, 0, 0, 0, 0, 0, 0, 0, 0, 0, 7.8, 6.3, 4.9, 3.6, 2.5, 2.0, 9.0, 7.8, 6.7, 5.8, 5.2, 5.0, 10.3, 9.2, 8.3, 7.6, 7.2, 7.0], [0, 0, 0, 0, 0, 0, 0, 0, 0, 0, 0, 0, 0, 0, 0, 0, 0, 0, 0, 0, 0, 0, 0, 0, 0, 0, 0, 0, 0, 0, 0, 0, 0, 0, 0, 0, 0, 0, 0, 0, 0, 0, 0, 0, 0, 0, 0, 0, 0, 0, 0, 0, 0, 0, 0, 0, 0, 0, 0, 0, 0, 0, 0, 0, 0, 0, 0, 0, 0, 0, 0, 0, 0, 0, 0, 0, 0, 0, 0, 1.5, 3.0, 4.5, 6.0, 7.5, 3.0, 3.4, 4.2, 5.4, 6.7, 8.1, 5.0, 5.2, 5.8, 6.7, 7.8, 9.0], [0, 0, 0, 0, 0, 0, 0, 0, 0, 0, 0, 0, 0, 0, 0, 0, 0, 0, 0, 0, 0, 0, 0, 0, 0, 0, 0, 0, 0, 0, 0, 0, 0, 0, 0, 0, 0, 0, 0, 0, 0, 0, 0, 0, 0, 0, 0, 0, 0, 0, 0, 0, 0, 0, 0, 0, 0, 0, 0, 0, 0, 0, 0, 0, 0, 0, 0, 0, 0, 0, 0, 0, 0, 0, 0, 0, 0, 0, 0, 0, 1.5, 3.0, 4.5, 6.0, 3.4, 3.0, 3.4, 4.2, 5.4, 6.7, 5.2, 5.0, 5.2, 5.8, 6.7, 7.8], [0, 0, 0, 0, 0, 0, 0, 0, 0, 0, 0, 0, 0, 0, 0, 0, 0, 0, 0, 0, 0, 0, 0, 0, 0, 0, 0, 0, 0, 0, 0, 0, 0, 0, 0, 0, 0, 0, 0, 0, 0, 0, 0, 0, 0, 0, 0, 0, 0, 0, 0, 0, 0, 0, 0, 0, 0, 0, 0, 0, 0, 0, 0, 0, 0, 0, 0, 0, 0, 0, 0, 0, 0, 0, 0, 0, 0, 0, 0, 0, 0, 1.5, 3.0, 4.5, 4.2, 3.4, 3.0, 3.4, 4.2, 5.4, 5.8, 5.2, 5.0, 5.2, 5.8, 6.7], [0, 0, 0, 0, 0, 0, 0, 0, 0, 0, 0, 0, 0, 0, 0, 0, 0, 0, 0, 0, 0, 0, 0, 0, 0, 0, 0, 0, 0, 0, 0, 0, 0, 0, 0, 0, 0, 0, 0, 0, 0, 0, 0, 0, 0, 0, 0, 0, 0, 0, 0, 0, 0, 0, 0, 0, 0, 0, 0, 0, 0, 0, 0, 0, 0, 0, 0, 0, 0, 0, 0, 0, 0, 0, 0, 0, 0, 0, 0, 0, 0, 0, 1.5, 3.0, 5.4, 4.2, 3.4, 3.0, 3.4, 4.2, 6.7, 5.8, 5.2, 5.0, 5.2, 5.8], [0, 0, 0, 0, 0, 0, 0, 0, 0, 0, 0, 0, 0, 0, 0, 0, 0, 0, 0, 0, 0, 0, 0, 0, 0, 0, 0, 0, 0, 0, 0, 0, 0, 0, 0, 0, 0, 0, 0, 0, 0, 0, 0, 0, 0, 0, 0, 0, 0, 0, 0, 0, 0, 0, 0, 0, 0, 0, 0, 0, 0, 0, 0, 0, 0, 0, 0, 0, 0, 0, 0, 0, 0, 0, 0, 0, 0, 0, 0, 0, 0, 0, 0, 1.5, 6.7, 5.4, 4.2, 3.4, 3.0, 3.4, 7.8, 6.7, 5.8, 5.2, 5.0, 5.2], [0, 0, 0, 0, 0, 0, 0, 0, 0, 0, 0, 0, 0, 0, 0, 0, 0, 0, 0, 0, 0, 0, 0, 0, 0, 0, 0, 0, 0, 0, 0, 0, 0, 0, 0, 0, 0, 0, 0, 0, 0, 0, 0, 0, 0, 0, 0, 0, 0, 0, 0, 0, 0, 0, 0, 0, 0, 0, 0, 0, 0, 0, 0, 0, 0, 0, 0, 0, 0, 0, 0, 0, 0, 0, 0, 0, 0, 0, 0, 0, 0, 0, 0, 0, 8.1, 6.7, 5.4, 4.2, 3.4, 3.0, 9.0, 7.8, 6.7, 5.8, 5.2, 5.0], [0, 0, 0, 0, 0, 0, 0, 0, 0, 0, 0, 0, 0, 0, 0, 0, 0, 0, 0, 0, 0, 0, 0, 0, 0, 0, 0, 0, 0, 0, 0, 0, 0, 0, 0, 0, 0, 0, 0, 0, 0, 0, 0, 0, 0, 0, 0, 0, 0, 0, 0, 0, 0, 0, 0, 0, 0, 0, 0, 0, 0, 0, 0, 0, 0, 0, 0, 0, 0, 0, 0, 0, 0, 0, 0, 0, 0, 0, 0, 0, 0, 0, 0, 0, 0, 1.5, 3.0, 4.5, 6.0, 7.5, 2.0, 2.5, 3.6, 4.9, 6.3, 7.8], [0, 0, 0, 0, 0, 0, 0, 0, 0, 0, 0, 0, 0, 0, 0, 0, 0, 0, 0, 0, 0, 0, 0, 0, 0, 0, 0, 0, 0, 0, 0, 0, 0, 0, 0, 0, 0, 0, 0, 0, 0, 0, 0, 0, 0, 0, 0, 0, 0, 0, 0, 0, 0, 0, 0, 0, 0, 0, 0, 0, 0, 0, 0, 0, 0, 0, 0, 0, 0, 0, 0, 0, 0, 0, 0, 0, 0, 0, 0, 0, 0, 0, 0, 0, 0, 0, 1.5, 3.0, 4.5, 6.0, 2.5, 2.0, 2.5, 3.6, 4.9, 6.3], [0, 0, 0, 0, 0, 0, 0, 0, 0, 0, 0, 0, 0, 0, 0, 0, 0, 0, 0, 0, 0, 0, 0, 0, 0, 0, 0, 0, 0, 0, 0, 0, 0, 0, 0, 0, 0, 0, 0, 0, 0, 0, 0, 0, 0, 0, 0, 0, 0, 0, 0, 0, 0, 0, 0, 0, 0, 0, 0, 0, 0, 0, 0, 0, 0, 0, 0, 0, 0, 0, 0, 0, 0, 0, 0, 0, 0, 0, 0, 0, 0, 0, 0, 0, 0, 0, 0, 1.5, 3.0, 4.5, 3.6, 2.5, 2.0, 2.5, 3.6, 4.9], [0, 0, 0, 0, 0, 0, 0, 0, 0, 0, 0, 0, 0, 0, 0, 0, 0, 0, 0, 0, 0, 0, 0, 0, 0, 0, 0, 0, 0, 0, 0, 0, 0, 0, 0, 0, 0, 0, 0, 0, 0, 0, 0, 0, 0, 0, 0, 0, 0, 0, 0, 0, 0, 0, 0, 0, 0, 0, 0, 0, 0, 0, 0, 0, 0, 0, 0, 0, 0, 0, 0, 0, 0, 0, 0, 0, 0, 0, 0, 0, 0, 0, 0, 0, 0, 0, 0, 0, 1.5, 3.0, 4.9, 3.6, 2.5, 2.0, 2.5, 3.6], [0, 0, 0, 0, 0, 0, 0, 0, 0, 0, 0, 0, 0, 0, 0, 0, 0, 0, 0, 0, 0, 0, 0, 0, 0, 0, 0, 0, 0, 0, 0, 0, 0, 0, 0, 0, 0, 0, 0, 0, 0, 0, 0, 0, 0, 0, 0, 0, 0, 0, 0, 0, 0, 0, 0, 0, 0, 0, 0, 0, 0, 0, 0, 0, 0, 0, 0, 0, 0, 0, 0, 0, 0, 0, 0, 0, 0, 0, 0, 0, 0, 0, 0, 0, 0, 0, 0, 0, 0, 1.5, 6.3, 4.9, 3.6, 2.5, 2.0, 2.5], [0, 0, 0, 0, 0, 0, 0, 0, 0, 0, 0, 0, 0, 0, 0, 0, 0, 0, 0, 0, 0, 0, 0, 0, 0, 0, 0, 0, 0, 0, 0, 0, 0, 0, 0, 0, 0, 0, 0, 0, 0, 0, 0, 0, 0, 0, 0, 0, 0, 0, 0, 0, 0, 0, 0, 0, 0, 0, 0, 0, 0, 0, 0, 0, 0, 0, 0, 0, 0, 0, 0, 0, 0, 0, 0, 0, 0, 0, 0, 0, 0, 0, 0, 0, 0, 0, 0, 0, 0, 0, 7.8, 6.3, 4.9, 3.6, 2.5, 2.0], [0, 0, 0, 0, 0, 0, 0, 0, 0, 0, 0, 0, 0, 0, 0, 0, 0, 0, 0, 0, 0, 0, 0, 0, 0, 0, 0, 0, 0, 0, 0, 0, 0, 0, 0, 0, 0, 0, 0, 0, 0, 0, 0, 0, 0, 0, 0, 0, 0, 0, 0, 0, 0, 0, 0, 0, 0, 0, 0, 0, 0, 0, 0, 0, 0, 0, 0, 0, 0, 0, 0, 0, 0, 0, 0, 0, 0, 0, 0, 0, 0, 0, 0, 0, 0, 0, 0, 0, 0, 0, 0, 1.5, 3.0, 4.5, 6.0, 7.5], [0, 0, 0, 0, 0, 0, 0, 0, 0, 0, 0, 0, 0, 0, 0, 0, 0, 0, 0, 0, 0, 0, 0, 0, 0, 0, 0, 0, 0, 0, 0, 0, 0, 0, 0, 0, 0, 0, 0, 0, 0, 0, 0, 0, 0, 0, 0, 0, 0, 0, 0, 0, 0, 0, 0, 0, 0, 0, 0, 0, 0, 0, 0, 0, 0, 0, 0, 0, 0, 0, 0, 0, 0, 0, 0, 0, 0, 0, 0, 0, 0, 0, 0, 0, 0, 0, 0, 0, 0, 0, 0, 0, 1.5, 3.0, 4.5, 6.0], [0, 0, 0, 0, 0, 0, 0, 0, 0, 0, 0, 0, 0, 0, 0, 0, 0, 0, 0, 0, 0, 0, 0, 0, 0, 0, 0, 0, 0, 0, 0, 0, 0, 0, 0, 0, 0, 0, 0, 0, 0, 0, 0, 0, 0, 0, 0, 0, 0, 0, 0, 0, 0, 0, 0, 0, 0, 0, 0, 0, 0, 0, 0, 0, 0, 0, 0, 0, 0, 0, 0, 0, 0, 0, 0, 0, 0, 0, 0, 0, 0, 0, 0, 0, 0, 0, 0, 0, 0, 0, 0, 0, 0, 1.5, 3.0, 4.5], [0, 0, 0, 0, 0, 0, 0, 0, 0, 0, 0, 0, 0, 0, 0, 0, 0, 0, 0, 0, 0, 0, 0, 0, 0, 0, 0, 0, 0, 0, 0, 0, 0, 0, 0, 0, 0, 0, 0, 0, 0, 0, 0, 0, 0, 0, 0, 0, 0, 0, 0, 0, 0, 0, 0, 0, 0, 0, 0, 0, 0, 0, 0, 0, 0, 0, 0, 0, 0, 0, 0, 0, 0, 0, 0, 0, 0, 0, 0, 0, 0, 0, 0, 0, 0, 0, 0, 0, 0, 0, 0, 0, 0, 0, 1.5, 3.0], [0, 0, 0, 0, 0, 0, 0, 0, 0, 0, 0, 0, 0, 0, 0, 0, 0, 0, 0, 0, 0, 0, 0, 0, 0, 0, 0, 0, 0, 0, 0, 0, 0, 0, 0, 0, 0, 0, 0, 0, 0, 0, 0, 0, 0, 0, 0, 0, 0, 0, 0, 0, 0, 0, 0, 0, 0, 0, 0, 0, 0, 0, 0, 0, 0, 0, 0, 0, 0, 0, 0, 0, 0, 0, 0, 0, 0, 0, 0, 0, 0, 0, 0, 0, 0, 0, 0, 0, 0, 0, 0, 0, 0, 0, 0, 1.5], [0, 0, 0, 0, 0, 0, 0, 0, 0, 0, 0, 0, 0, 0, 0, 0, 0, 0, 0, 0, 0, 0, 0, 0, 0, 0, 0, 0, 0, 0, 0, 0, 0, 0, 0, 0, 0, 0, 0, 0, 0, 0, 0, 0, 0, 0, 0, 0, 0, 0, 0, 0, 0, 0, 0, 0, 0, 0, 0, 0, 0, 0, 0, 0, 0, 0, 0, 0, 0, 0, 0, 0, 0, 0, 0, 0, 0, 0, 0, 0, 0, 0, 0, 0, 0, 0, 0, 0, 0, 0, 0, 0, 0, 0, 0, 0]];